\ Using Xpress-MP extensions
Minimize
 60 x(1,2) + 12 x(1,3) + 19.6 x(1,4) + 20 x(1,5) + 10 x(1,6) + 44 x(2,7) + 122 x(2,8) + 
12 x(3,4) + 20 x(3,8) + 80 x(4,9) + 20 x(4,13) + 110 x(5,4) + 116 x(5,6) + 20 x(5,9) + 
14 x(6,10) + 122 x(6,11) + 32 x(7,12) + 88 x(7,13) + 57.6 x(8,4) + 8 x(8,12) + 
20 x(9,13) + 8 x(9,15) + 30 x(10,11) + 45.6 x(10,14) + 14 x(11,16) + 20 x(12,15) + 
120 x(13,12) + 10 x(13,15) + 88 x(14,15) + 47 x(14,16) + 16 x(16,15)

Subject To
timeConstrain: 5 x(1,2) + 5 x(1,3) + 15 x(1,4) + 6.5 x(1,5) + 11 x(1,6) + 7 x(2,7) + 
18.5 x(2,8) + 8.5 x(3,4) + 10 x(3,8) + 27 x(4,9) + 15 x(4,13) + 34 x(5,4) + 
20.5 x(5,6) + 10 x(5,9) + 7.5 x(6,10) + 19.2 x(6,11) + 7 x(7,12) + 15 x(7,13) + 
10 x(8,4) + 10 x(8,12) + 10 x(9,13) + 37.5 x(9,15) + 6 x(10,11) + 7.5 x(10,14) + 
12 x(11,16) + 25.5 x(12,15) + 15 x(13,12) + 23 x(13,15) + 22.5 x(14,15) + 7.5 x(14,16) + 
12 x(16,15) <= 45.75
_R2: -x(11,16) - x(14,16) + x(16,15) = 0
_R3: -x(10,14) + x(14,15) + x(14,16) = 0
_R4: -x(4,13) - x(7,13) - x(9,13) + x(13,12) + x(13,15) = 0
_R5: -x(7,12) - x(8,12) + x(12,15) - x(13,12) = 0
_R6: -x(6,11) - x(10,11) + x(11,16) = 0
_R7: -x(6,10) + x(10,11) + x(10,14) = 0
_R8: -x(4,9) - x(5,9) + x(9,13) + x(9,15) = 0
_R9: -x(2,8) - x(3,8) + x(8,4) + x(8,12) = 0
_R10: -x(2,7) + x(7,12) + x(7,13) = 0
_R11: -x(1,6) - x(5,6) + x(6,10) + x(6,11) = 0
_R12: -x(1,5) + x(5,4) + x(5,6) + x(5,9) = 0
_R13: -x(1,4) - x(3,4) + x(4,9) + x(4,13) - x(5,4) - x(8,4) = 0
_R14: -x(1,3) + x(3,4) + x(3,8) = 0
_R15: -x(1,2) + x(2,7) + x(2,8) = 0
_R16: x(9,15) + x(12,15) + x(13,15) + x(14,15) + x(16,15) = 1
_R17: x(1,2) + x(1,3) + x(1,4) + x(1,5) + x(1,6) = 1

Bounds

Binaries
x(1,2) x(1,3) x(1,4) x(1,5) x(1,6) x(2,7) x(2,8) x(3,4) x(3,8) x(4,9) x(4,13) 
x(5,4) x(5,6) x(5,9) x(6,10) x(6,11) x(7,12) x(7,13) x(8,4) x(8,12) x(9,13) 
x(9,15) x(10,11) x(10,14) x(11,16) x(12,15) x(13,12) x(13,15) x(14,15) x(14,16) 
x(16,15) 

End
